p cnf 100 1
100 0
w 1 0.207273
w 2 1 0
w 2 -1 1
w 3 2 0.561267
w 3 -2 0.630287
w 4 3 0.368425
w 4 -3 0.125672
w 5 4 0.93669
w 5 -4 0.563003
w 6 5 0
w 6 -5 1
w 7 6 0.613158
w 7 -6 0.259117
w 8 7 1
w 8 -7 0
w 9 8 0.28421
w 9 -8 0.312382
w 10 9 1
w 10 -9 0
w 11 1 0
w 11 -1 1
w 12 11 2 0
w 12 11 -2 0
w 12 -11 2 1
w 12 -11 -2 1
w 13 12 3 0.949235
w 13 12 -3 0.543264
w 13 -12 3 0.214985
w 13 -12 -3 0.510503
w 14 13 4 1
w 14 13 -4 0
w 14 -13 4 1
w 14 -13 -4 0
w 15 14 5 0.862226
w 15 14 -5 0.347927
w 15 -14 5 0.24328
w 15 -14 -5 0.677361
w 16 15 6 0.502397
w 16 15 -6 0.97147
w 16 -15 6 0.0207851
w 16 -15 -6 0.19968
w 17 16 7 0
w 17 16 -7 1
w 17 -16 7 1
w 17 -16 -7 0
w 18 17 8 1
w 18 17 -8 0
w 18 -17 8 1
w 18 -17 -8 0
w 19 18 9 1
w 19 18 -9 1
w 19 -18 9 0
w 19 -18 -9 1
w 20 19 10 0.784711
w 20 19 -10 0.673555
w 20 -19 10 0.441108
w 20 -19 -10 0.0839348
w 21 11 0.256726
w 21 -11 0.946161
w 22 21 12 0
w 22 21 -12 1
w 22 -21 12 1
w 22 -21 -12 1
w 23 22 13 0.0513599
w 23 22 -13 0.202082
w 23 -22 13 0.850673
w 23 -22 -13 0.384527
w 24 23 14 0.0621273
w 24 23 -14 0.795251
w 24 -23 14 0.893495
w 24 -23 -14 0.416077
w 25 24 15 1
w 25 24 -15 1
w 25 -24 15 1
w 25 -24 -15 0
w 26 25 16 0.707946
w 26 25 -16 0.479071
w 26 -25 16 0.132379
w 26 -25 -16 0.492658
w 27 26 17 0
w 27 26 -17 0
w 27 -26 17 1
w 27 -26 -17 1
w 28 27 18 0.943678
w 28 27 -18 0.330219
w 28 -27 18 0.146277
w 28 -27 -18 0.974253
w 29 28 19 1
w 29 28 -19 0
w 29 -28 19 1
w 29 -28 -19 0
w 30 29 20 0
w 30 29 -20 1
w 30 -29 20 0
w 30 -29 -20 0
w 31 21 1
w 31 -21 0
w 32 31 22 0.588666
w 32 31 -22 0.331069
w 32 -31 22 0.526913
w 32 -31 -22 0.158864
w 33 32 23 0
w 33 32 -23 1
w 33 -32 23 0
w 33 -32 -23 1
w 34 33 24 0.108266
w 34 33 -24 0.0327972
w 34 -33 24 0.694944
w 34 -33 -24 0.631019
w 35 34 25 0.0251634
w 35 34 -25 0.777296
w 35 -34 25 0.950728
w 35 -34 -25 0.357786
w 36 35 26 0.97634
w 36 35 -26 0.89249
w 36 -35 26 0.110507
w 36 -35 -26 0.38648
w 37 36 27 0.764576
w 37 36 -27 0.591871
w 37 -36 27 0.872975
w 37 -36 -27 0.834723
w 38 37 28 0.448551
w 38 37 -28 0.423389
w 38 -37 28 0.157222
w 38 -37 -28 0.975464
w 39 38 29 0.196237
w 39 38 -29 0.981447
w 39 -38 29 0.873496
w 39 -38 -29 0.72791
w 40 39 30 0
w 40 39 -30 1
w 40 -39 30 0
w 40 -39 -30 1
w 41 31 1
w 41 -31 0
w 42 41 32 1
w 42 41 -32 0
w 42 -41 32 0
w 42 -41 -32 0
w 43 42 33 0.873564
w 43 42 -33 0.462876
w 43 -42 33 0.644594
w 43 -42 -33 0.638141
w 44 43 34 1
w 44 43 -34 0
w 44 -43 34 0
w 44 -43 -34 1
w 45 44 35 0.0381216
w 45 44 -35 0.941584
w 45 -44 35 0.478505
w 45 -44 -35 0.234359
w 46 45 36 0.352001
w 46 45 -36 0.962269
w 46 -45 36 0.063086
w 46 -45 -36 0.090228
w 47 46 37 0.235939
w 47 46 -37 0.523399
w 47 -46 37 0.265641
w 47 -46 -37 0.385267
w 48 47 38 0.510132
w 48 47 -38 0.485322
w 48 -47 38 0.797853
w 48 -47 -38 0.273189
w 49 48 39 0.506462
w 49 48 -39 0.146753
w 49 -48 39 0.024595
w 49 -48 -39 0.151056
w 50 49 40 0.079342
w 50 49 -40 0.668625
w 50 -49 40 0.257757
w 50 -49 -40 0.960242
w 51 41 0.154009
w 51 -41 0.998363
w 52 51 42 0.632514
w 52 51 -42 0.232722
w 52 -51 42 0.49936
w 52 -51 -42 0.984515
w 53 52 43 0
w 53 52 -43 1
w 53 -52 43 1
w 53 -52 -43 0
w 54 53 44 0.259077
w 54 53 -44 0.183651
w 54 -53 44 0.579875
w 54 -53 -44 0.769209
w 55 54 45 0.377727
w 55 54 -45 0.0423982
w 55 -54 45 0.230692
w 55 -54 -45 0.884189
w 56 55 46 1
w 56 55 -46 0
w 56 -55 46 1
w 56 -55 -46 1
w 57 56 47 1
w 57 56 -47 0
w 57 -56 47 1
w 57 -56 -47 1
w 58 57 48 0.0183245
w 58 57 -48 0.525957
w 58 -57 48 0.414306
w 58 -57 -48 0.00283956
w 59 58 49 0.976751
w 59 58 -49 0.0775827
w 59 -58 49 0.714385
w 59 -58 -49 0.775136
w 60 59 50 0.973462
w 60 59 -50 0.958787
w 60 -59 50 0.255599
w 60 -59 -50 0.742672
w 61 51 0.633326
w 61 -51 0.78507
w 62 61 52 0.517516
w 62 61 -52 0.974221
w 62 -61 52 0.113741
w 62 -61 -52 0.552762
w 63 62 53 0.44837
w 63 62 -53 0.256633
w 63 -62 53 0.180068
w 63 -62 -53 0.743241
w 64 63 54 0.565878
w 64 63 -54 0.036476
w 64 -63 54 0.510196
w 64 -63 -54 0.584203
w 65 64 55 0.924502
w 65 64 -55 0.587042
w 65 -64 55 0.283381
w 65 -64 -55 0.901254
w 66 65 56 0.997766
w 66 65 -56 0.67639
w 66 -65 56 0.340349
w 66 -65 -56 0.971229
w 67 66 57 0.595949
w 67 66 -57 0.7139
w 67 -66 57 0.262938
w 67 -66 -57 0.229275
w 68 67 58 1
w 68 67 -58 0
w 68 -67 58 0
w 68 -67 -58 0
w 69 68 59 1
w 69 68 -59 0
w 69 -68 59 0
w 69 -68 -59 1
w 70 69 60 0
w 70 69 -60 0
w 70 -69 60 1
w 70 -69 -60 1
w 71 61 1
w 71 -61 0
w 72 71 62 0
w 72 71 -62 1
w 72 -71 62 1
w 72 -71 -62 1
w 73 72 63 1
w 73 72 -63 0
w 73 -72 63 0
w 73 -72 -63 1
w 74 73 64 1
w 74 73 -64 1
w 74 -73 64 0
w 74 -73 -64 1
w 75 74 65 0.418417
w 75 74 -65 0.21519
w 75 -74 65 0.385548
w 75 -74 -65 0.101919
w 76 75 66 0.987073
w 76 75 -66 0.528662
w 76 -75 66 0.922813
w 76 -75 -66 0.154477
w 77 76 67 0.584445
w 77 76 -67 0.906083
w 77 -76 67 0.0175338
w 77 -76 -67 0.17058
w 78 77 68 1
w 78 77 -68 0
w 78 -77 68 0
w 78 -77 -68 0
w 79 78 69 0.591626
w 79 78 -69 0.911397
w 79 -78 69 0.620703
w 79 -78 -69 0.531198
w 80 79 70 0.682597
w 80 79 -70 0.700044
w 80 -79 70 0.394226
w 80 -79 -70 0.865881
w 81 71 0.358317
w 81 -71 0.284298
w 82 81 72 0.743865
w 82 81 -72 0.386217
w 82 -81 72 0.602248
w 82 -81 -72 0.730938
w 83 82 73 0.525061
w 83 82 -73 0.885415
w 83 -82 73 0.906761
w 83 -82 -73 0.109506
w 84 83 74 0.924295
w 84 83 -74 0.280087
w 84 -83 74 0.0362282
w 84 -83 -74 0.250862
w 85 84 75 0.284232
w 85 84 -75 0.88423
w 85 -84 75 0.759804
w 85 -84 -75 0.875859
w 86 85 76 0.380507
w 86 85 -76 0.407056
w 86 -85 76 0.698952
w 86 -85 -76 0.0631034
w 87 86 77 1
w 87 86 -77 1
w 87 -86 77 0
w 87 -86 -77 1
w 88 87 78 0.19536
w 88 87 -78 0.5995
w 88 -87 78 0.155902
w 88 -87 -78 0.926298
w 89 88 79 0.680963
w 89 88 -79 0.811713
w 89 -88 79 0.42114
w 89 -88 -79 0.79047
w 90 89 80 0.345435
w 90 89 -80 0.0705565
w 90 -89 80 0.639439
w 90 -89 -80 0.596297
w 91 81 0
w 91 -81 1
w 92 91 82 1
w 92 91 -82 1
w 92 -91 82 1
w 92 -91 -82 0
w 93 92 83 0
w 93 92 -83 1
w 93 -92 83 0
w 93 -92 -83 1
w 94 93 84 1
w 94 93 -84 0
w 94 -93 84 1
w 94 -93 -84 1
w 95 94 85 0.953794
w 95 94 -85 0.746024
w 95 -94 85 0.641436
w 95 -94 -85 0.468174
w 96 95 86 1
w 96 95 -86 1
w 96 -95 86 0
w 96 -95 -86 1
w 97 96 87 0
w 97 96 -87 0
w 97 -96 87 0
w 97 -96 -87 1
w 98 97 88 0.311572
w 98 97 -88 0.0650421
w 98 -97 88 0.418998
w 98 -97 -88 0.587725
w 99 98 89 0
w 99 98 -89 0
w 99 -98 89 1
w 99 -98 -89 0
w 100 99 90 0.567003
w 100 99 -90 0.975738
w 100 -99 90 0.150893
w 100 -99 -90 0.921297